experiment/data/lkh-res/Vrp-Set-A-n60/Vrp-Set-A-n60-lkh/0.lkh1.vrp
NAME : 0
COMMENT : CVRP Instance
TYPE : CVRP
DIMENSION : 60
EDGE_WEIGHT_TYPE : EUC_2D
CAPACITY : 100
NODE_COORD_SECTION
1	2700	9300
2	3300	2700
3	2900	3900
4	700	8100
5	100	5900
6	4900	900
7	2100	5300
8	7900	8900
9	8100	8300
10	8500	1100
11	4500	900
12	700	6500
13	9500	2700
14	8100	8500
15	3700	8100
16	6900	6900
17	1500	9500
18	8900	7500
19	3300	9300
20	5700	8300
21	1100	9500
22	300	5700
23	4500	1100
24	4300	6100
25	3500	4300
26	1900	8300
27	8300	6900
28	8500	7700
29	1900	3900
30	8300	8700
31	100	1300
32	1500	3900
33	8300	1700
34	4100	9700
35	3100	6100
36	5900	6900
37	2900	1500
38	9300	8300
39	6300	9700
40	6500	5700
41	1500	6900
42	3100	9700
43	5700	900
44	8500	3700
45	2100	2900
46	5300	1100
47	1500	7700
48	4100	6900
49	4500	1700
50	1300	2500
51	6300	5700
52	9500	500
53	5500	9100
54	300	3100
55	4700	700
56	6100	6900
57	8500	3500
58	8900	8100
59	4500	4700
60	6500	9300
DEMAND_SECTION
1	0
2	16
3	2
4	7
5	11
6	9
7	17
8	21
9	23
10	10
11	6
12	19
13	18
14	20
15	13
16	5
17	11
18	24
19	2
20	3
21	1
22	5
23	20
24	23
25	24
26	18
27	19
28	2
29	17
30	17
31	9
32	11
33	2
34	6
35	9
36	5
37	9
38	2
39	14
40	19
41	11
42	21
43	20
44	21
45	18
46	48
47	1
48	17
49	42
50	2
51	4
52	24
53	18
54	21
55	11
56	9
57	18
58	22
59	9
60	23
DEPOT_SECTION
1
-1
EOF
