experiment/data/lkh-res/Vrp-Set-A-n60/Vrp-Set-A-n60-lkh/0.lkh1.log
PARAMETER_FILE = baseline_results/cvrp_lkh/Vrp-Set-A-n60/Vrp-Set-A-n60-lkh/0.lkh1.par
Reading PROBLEM_FILE: "baseline_results/cvrp_lkh/Vrp-Set-A-n60/Vrp-Set-A-n60-lkh/0.lkh1.vrp" ... done
ASCENT_CANDIDATES = 50
BACKBONE_TRIALS = 0
BACKTRACKING = NO
# BWTSP =
# CANDIDATE_FILE =
CANDIDATE_SET_TYPE = ALPHA
# DISTANCE =
DEPOT = 1
# EDGE_FILE =
EXCESS = 0.0166667
EXTERNAL_SALESMEN = 0
EXTRA_CANDIDATES = 0 
EXTRA_CANDIDATE_SET_TYPE = QUADRANT
GAIN23 = NO
GAIN_CRITERION = YES
INITIAL_PERIOD = 100
INITIAL_STEP_SIZE = 1
INITIAL_TOUR_ALGORITHM = WALK
# INITIAL_TOUR_FILE = 
INITIAL_TOUR_FRACTION = 1.000
# INPUT_TOUR_FILE = 
KICK_TYPE = 4
KICKS = 1
# MAX_BREADTH =
MAKESPAN = NO
MAX_CANDIDATES = 5 
MAX_SWAPS = 0
MAX_TRIALS = 10000
# MERGE_TOUR_FILE =
MOVE_TYPE = 5 SPECIAL
MTSP_MIN_SIZE = 1
MTSP_MAX_SIZE = 59
# MTSP_SOLUTION_FILE = 
# NONSEQUENTIAL_MOVE_TYPE = 5
# OPTIMUM =
OUTPUT_TOUR_FILE = baseline_results/cvrp_lkh/Vrp-Set-A-n60/Vrp-Set-A-n60-lkh/0.lkh1.tour
PATCHING_A = 1 
PATCHING_C = 0 
# PI_FILE = 
POPMUSIC_INITIAL_TOUR = NO
POPMUSIC_MAX_NEIGHBORS = 5
POPMUSIC_SAMPLE_SIZE = 10
POPMUSIC_SOLUTIONS = 50
POPMUSIC_TRIALS = 1
POPULATION_SIZE = 10
PRECISION = 100
PROBLEM_FILE = baseline_results/cvrp_lkh/Vrp-Set-A-n60/Vrp-Set-A-n60-lkh/0.lkh1.vrp
RECOMBINATION = IPT
RESTRICTED_SEARCH = YES
RUNS = 1
SALESMEN = 9
SCALE = 1
SEED = 1234
# SINTEF_SOLUTION_FILE = 
STOP_AT_OPTIMUM = YES
SUBGRADIENT = YES
# SUBPROBLEM_SIZE =
# SUBPROBLEM_TOUR_FILE = 
SUBSEQUENT_MOVE_TYPE = 5 SPECIAL
SUBSEQUENT_PATCHING = YES
# TIME_LIMIT =
# TOTAL_TIME_LIMIT =
# TOUR_FILE = 
TRACE_LEVEL = 1
VEHICLES = 9

Lower bound = 74268.2, Ascent time = 0.01 sec.
Cand.min = 4, Cand.avg = 5.0, Cand.max = 5
Preprocessing time = 0.01 sec.
* 1: Cost = 0_146218, Time = 0.01 sec. 
Writing OUTPUT_TOUR_FILE: "baseline_results/cvrp_lkh/Vrp-Set-A-n60/Vrp-Set-A-n60-lkh/0.lkh1.tour" ... done
* 2: Cost = 0_143251, Time = 0.01 sec. 
Writing OUTPUT_TOUR_FILE: "baseline_results/cvrp_lkh/Vrp-Set-A-n60/Vrp-Set-A-n60-lkh/0.lkh1.tour" ... done
* 6: Cost = 0_140920, Time = 0.04 sec. 
Writing OUTPUT_TOUR_FILE: "baseline_results/cvrp_lkh/Vrp-Set-A-n60/Vrp-Set-A-n60-lkh/0.lkh1.tour" ... done
* 36: Cost = 0_140867, Time = 0.15 sec. 
Writing OUTPUT_TOUR_FILE: "baseline_results/cvrp_lkh/Vrp-Set-A-n60/Vrp-Set-A-n60-lkh/0.lkh1.tour" ... done
* 39: Cost = 0_138103, Time = 0.16 sec. 
Writing OUTPUT_TOUR_FILE: "baseline_results/cvrp_lkh/Vrp-Set-A-n60/Vrp-Set-A-n60-lkh/0.lkh1.tour" ... done
* 40: Cost = 0_137819, Time = 0.16 sec. 
Writing OUTPUT_TOUR_FILE: "baseline_results/cvrp_lkh/Vrp-Set-A-n60/Vrp-Set-A-n60-lkh/0.lkh1.tour" ... done
* 41: Cost = 0_137802, Time = 0.17 sec. 
Writing OUTPUT_TOUR_FILE: "baseline_results/cvrp_lkh/Vrp-Set-A-n60/Vrp-Set-A-n60-lkh/0.lkh1.tour" ... done
* 51: Cost = 0_136701, Time = 0.21 sec. 
Writing OUTPUT_TOUR_FILE: "baseline_results/cvrp_lkh/Vrp-Set-A-n60/Vrp-Set-A-n60-lkh/0.lkh1.tour" ... done
* 60: Cost = 0_136611, Time = 0.24 sec. 
Writing OUTPUT_TOUR_FILE: "baseline_results/cvrp_lkh/Vrp-Set-A-n60/Vrp-Set-A-n60-lkh/0.lkh1.tour" ... done
* 80: Cost = 0_136584, Time = 0.32 sec. 
Writing OUTPUT_TOUR_FILE: "baseline_results/cvrp_lkh/Vrp-Set-A-n60/Vrp-Set-A-n60-lkh/0.lkh1.tour" ... done
* 90: Cost = 0_136060, Time = 0.37 sec. 
Writing OUTPUT_TOUR_FILE: "baseline_results/cvrp_lkh/Vrp-Set-A-n60/Vrp-Set-A-n60-lkh/0.lkh1.tour" ... done
* 101: Cost = 0_135580, Time = 0.40 sec. 
Writing OUTPUT_TOUR_FILE: "baseline_results/cvrp_lkh/Vrp-Set-A-n60/Vrp-Set-A-n60-lkh/0.lkh1.tour" ... done
Population:
  1: 0_135580
Run 1: Cost = 0_135580, Time = 35.92 sec. 

Successes/Runs = 0/1 
Cost.min = 135580, Cost.avg = 135580.00, Cost.max = 135580
Gap.min = 0.0000%, Gap.avg = 0.0000%, Gap.max = 0.0000%
Penalty.min = 0, Penalty.avg = 0.00, Penalty.max = 0
Trials.min = 10000, Trials.avg = 10000.0, Trials.max = 10000
Time.min = 35.92 sec., Time.avg = 35.92 sec., Time.max = 35.92 sec.
Time.total = 35.93 sec.
  Size.min = 5, Size.max = 8, Penalty = 0
  Cost.min = 8042, Cost.max = 22983, Cost.sum = 135580
Best CVRP solution:
  Cost = 0_135580

