experiment/data/lkh-res/Vrp-Set-A-n60/Vrp-Set-A-n60-lkh/0.lkh1.tour
NAME : 0.135580.tour
COMMENT : Length = 135580
COMMENT : Found by LKH-3 [Keld Helsgaun] Tue Apr  9 00:45:54 2024
TYPE : TOUR
DIMENSION : 68
TOUR_SECTION
1
3
2
49
23
37
32
64
43
46
6
55
11
65
15
48
24
59
25
35
66
20
28
58
38
18
27
40
63
26
47
41
12
4
21
17
62
5
22
54
31
50
45
29
7
67
33
10
52
13
57
44
51
61
19
53
60
39
34
42
68
36
56
16
9
14
30
8
-1
EOF
